
Gurobi 7.0.2 (mac64, Python) logging started Mon Sep 24 07:57:12 2018


Gurobi 8.0.1 (mac64, Python) logging started Tue Oct  2 15:17:20 2018

Academic license - for non-commercial use only

Gurobi 7.0.2 (mac64, Python) logging started Thu Nov  1 10:21:54 2018


Gurobi 8.1.0 (mac64, Python) logging started Tue Jan 15 17:28:25 2019

Academic license - for non-commercial use only

Gurobi 8.1.0 (mac64, Python) logging started Thu Jan 17 21:03:12 2019

Academic license - for non-commercial use only

Gurobi 8.1.0 (mac64, Python) logging started Thu Jan 17 21:10:08 2019

Academic license - for non-commercial use only
